set VV := 0 1 2 3 4 5 6 7 8 ;
set VS := 0 1 2 3 4 5 6 7 8 9 10 11 12 13 14 15 16 17 18 19 20 21 22 ;
param cv := 
0 19
1 19
2 19
3 25
4 24
5 20
6 22
7 14
8 22
;
param cs := 
0 30
1 23
2 30
3 37
4 29
5 24
6 20
7 31
8 23
9 35
10 31
11 23
12 23
13 26
14 35
15 29
16 28
17 38
18 27
19 24
20 32
21 40
22 33
;
param bv:	 0 1 2 3 4 5 6 7 8 := 
		0 0 0 25 0 0 0 0 0 12 
		1 0 0 19 0 0 0 0 14 0 
		2 0 0 0 18 0 15 0 0 0 
		3 0 0 0 0 0 25 0 0 0 
		4 0 0 0 0 0 0 0 14 0 
		5 0 0 0 0 0 0 0 0 0 
		6 0 0 0 0 0 0 0 23 0 
		7 0 0 0 0 0 0 0 0 0 
		8 0 0 0 0 0 0 0 0 0 
;
param bs:	 0 1 2 3 4 5 6 7 8 9 10 11 12 13 14 15 16 17 18 19 20 21 22 := 
		0 0 0 0 26 0 0 0 0 0 0 0 0 0 0 0 0 23 0 0 0 0 0 0 
		1 0 0 33 0 38 0 0 24 0 0 0 33 0 0 0 40 0 0 0 0 0 0 0 
		2 0 33 0 33 0 0 0 0 20 0 0 26 24 0 0 0 21 0 0 0 28 0 0 
		3 26 0 33 0 0 0 0 0 0 0 24 0 0 0 0 0 37 0 0 0 0 0 0 
		4 0 38 0 0 0 0 0 0 0 0 0 0 0 0 0 20 0 30 27 0 0 0 0 
		5 0 0 0 0 0 0 0 0 0 0 0 0 40 0 0 0 0 0 0 0 0 0 0 
		6 0 0 0 0 0 0 0 23 0 0 0 0 0 0 0 0 24 0 0 0 0 0 0 
		7 0 24 0 0 0 0 23 0 0 25 0 0 39 0 0 0 0 0 0 0 33 0 0 
		8 0 0 20 0 0 0 0 0 0 36 0 0 0 0 0 0 0 0 20 0 0 0 0 
		9 0 0 0 0 0 0 0 25 36 0 38 0 0 0 0 0 0 0 0 0 0 0 0 
		10 0 0 0 24 0 0 0 0 0 38 0 0 0 0 0 0 0 0 20 0 0 0 0 
		11 0 33 26 0 0 0 0 0 0 0 0 0 0 0 0 0 0 0 0 25 0 0 23 
		12 0 0 24 0 0 40 0 39 0 0 0 0 0 0 0 0 0 35 0 0 0 0 0 
		13 0 0 0 0 0 0 0 0 0 0 0 0 0 0 0 20 0 0 23 0 0 26 0 
		14 0 0 0 0 0 0 0 0 0 0 0 0 0 0 0 0 0 0 0 0 21 0 0 
		15 0 40 0 0 20 0 0 0 0 0 0 0 0 20 0 0 26 0 25 29 0 0 0 
		16 23 0 21 37 0 0 24 0 0 0 0 0 0 0 0 26 0 0 29 0 0 0 0 
		17 0 0 0 0 30 0 0 0 0 0 0 0 35 0 0 0 0 0 40 0 0 0 0 
		18 0 0 0 0 27 0 0 0 20 0 20 0 0 23 0 25 29 40 0 0 0 0 0 
		19 0 0 0 0 0 0 0 0 0 0 0 25 0 0 0 29 0 0 0 0 0 0 30 
		20 0 0 28 0 0 0 0 33 0 0 0 0 0 0 21 0 0 0 0 0 0 0 0 
		21 0 0 0 0 0 0 0 0 0 0 0 0 0 26 0 0 0 0 0 0 0 0 0 
		22 0 0 0 0 0 0 0 0 0 0 0 23 0 0 0 0 0 0 0 30 0 0 0 
;
